c A SAT instance generated from a 3-CNF formula that had 40 clauses and 20 variables
p cnf 20 40
18 -4 5 0
-12 13 18 0
-11 -8 14 0
11 -20 -9 0
-8 19 -6 0
-12 9 5 0
18 5 -9 0
19 -1 -12 0
-14 5 10 0
17 2 -19 0
-2 -17 15 0
13 -4 -16 0
-18 15 -4 0
-19 -7 -10 0
-9 -4 6 0
5 1 11 0
14 -9 6 0
6 16 11 0
8 2 -19 0
6 -13 9 0
-10 13 -12 0
14 7 16 0
-10 -19 -11 0
12 2 15 0
-20 10 14 0
15 -17 -7 0
19 -17 -7 0
7 -17 4 0
-1 -4 19 0
-9 -14 -11 0
4 2 -15 0
13 -11 -10 0
-14 -16 -8 0
-11 -9 17 0
1 15 3 0
-16 19 15 0
-1 19 8 0
18 -14 17 0
3 -8 4 0
2 -6 -13 0
%
0

38 2 94 34 76 70 28 17 98 76 14 92 90 38 94 34 48 13 66 61
